unsat
(define-fun inv ((s (_ BitVec 4)) (t (_ BitVec 4))) (_ BitVec 4) t)
0.00user 0.01system 0:00.01elapsed 100%CPU (0avgtext+0avgdata 24968maxresident)k
0inputs+8outputs (0major+955minor)pagefaults 0swaps
